NAME : Instance 47
COMMENT : Comment 47
TYPE : TSP
DIMENSION: 30
EDGE_WEIGHT_TYPE : EUC_2D
NODE_COORD_SECTION
  1 467 1513
  2 1634 639
  3 1672 438
  4 859 1714
  5 1333 1821
  6 1103 1802
  7 1420 1490
  8 360 1552
  9 1803 460
  10 150 1763
  11 944 253
  12 671 68
  13 1836 356
  14 773 949
  15 1906 1087
  16 1693 484
  17 1478 1043
  18 27 300
  19 1474 1525
  20 1001 1718
  21 1936 33
  22 595 1836
  23 1109 1483
  24 1588 1463
  25 1340 1649
  26 1690 1302
  27 523 1015
  28 1632 1449
  29 1146 1926
  30 927 1823
EOF
